#######################################
### Exact MIP solver for the HHCRSP ###
#######################################
-- Instance file: new-instances/HHCRSP_400_80_71_1.2_R_RC.txt
-- Max threads: 4
-- Time limit: 999999 seconds
-- Use initial solution: No
Trivial flow violations prevented generating 2776404 variables.
Version identifier: 20.1.0.0 | 2020-11-10 | 9bedb6d68
CPXPARAM_Threads                                 4
CPXPARAM_Emphasis_Memory                         1
CPXPARAM_TimeLimit                               999999
Tried aggregator 1 time.
Presolve has eliminated 78348 rows and 15745 columns...
LP Presolve eliminated 78348 rows and 15745 columns.
Reduced LP has 2655098 rows, 2517917 columns, and 71471168 nonzeros.
Presolve time = 78.15 sec. (15256.22 ticks)
Compression time = 18.96 sec. (5.02 ticks)
Compression reduced 1044.44 MB A matrix to 315.65 MB
Symmetry aggregator did 4434028 additional substitutions.
Elapsed time = 98.41 sec. (15978.54 ticks, 1 iterations)

Iteration log . . .
Iteration:     1   Dual objective     =             0.000000
Iteration:  1831   Dual objective     =           438.000000

Dual crossover.
  Dual:  Fixing 2941 variables.
     2940 DMoves:  Infeasibility  2.77378120e-12  Objective  4.41000000e+02
        0 DMoves:  Infeasibility  1.34456335e-12  Objective  4.41000000e+02
  Dual:  Pushed 119, exchanged 2822.
  Primal:  Fixing 1647 variables.
     1646 PMoves:  Infeasibility  2.77555756e-17  Objective  4.41000000e+02
        0 PMoves:  Infeasibility  2.77555756e-17  Objective  4.41000000e+02
  Primal:  Pushed 1458, exchanged 189.

Solution status from MIP model:
-- Processing time: 130.663 sec.
-- Memory used: 1668.1 MB
-- Best bound: inf
-- Obj value: 441
-- Gap: inf%
-- Total distance: 1323
-- Total tardiness: 0
-- Largest tardiness: 0
